c FILE: yuzGCP130.2.col
c
c SOURCE: Yu.Zorin (yzorin@gmail.com)
c
c DESCRIPTION: Random graph based on cliques
c generated for Artificial Intelligence lectures course
c 10 cliques  each of 13 vertices
c
p edge 6 5
e 1 2
e 1 3
e 1 5
e 1 6
e 2 3
e 2 4
e 2 6
e 3 4
e 3 5
e 4 5
e 4 6
e 5 6
